\ Model mincut
\ LP format - for model browsing. Use MPS format to capture full model detail.
Minimize
  x_0_1 + x_1_0 + x_0_2 + x_0_3 + x_1_2 + x_3_2 + x_2_3 + x_3_4 + x_2_4
Subject To
 (5)_0_1: - y_0 + y_1 + x_0_1 >= 0
 (5)_1_0: y_0 - y_1 + x_1_0 >= 0
 (5)_0_2: - y_0 + y_2 + x_0_2 >= 0
 (5)_0_3: - y_0 + y_3 + x_0_3 >= 0
 (5)_1_2: - y_1 + y_2 + x_1_2 >= 0
 (5)_3_2: y_2 - y_3 + x_3_2 >= 0
 (5)_2_3: - y_2 + y_3 + x_2_3 >= 0
 (5)_3_4: - y_3 + y_4 + x_3_4 >= 0
 (5)_2_4: - y_2 + y_4 + x_2_4 >= 0
 (6)_0_1: - y_0 + x_0_1 <= 0
 (6)_1_0: - y_1 + x_1_0 <= 0
 (6)_0_2: - y_0 + x_0_2 <= 0
 (6)_0_3: - y_0 + x_0_3 <= 0
 (6)_1_2: - y_1 + x_1_2 <= 0
 (6)_3_2: - y_3 + x_3_2 <= 0
 (6)_2_3: - y_2 + x_2_3 <= 0
 (6)_3_4: - y_3 + x_3_4 <= 0
 (6)_2_4: - y_2 + x_2_4 <= 0
 (7)_0_1: y_1 + x_0_1 <= 1
 (7)_1_0: y_0 + x_1_0 <= 1
 (7)_0_2: y_2 + x_0_2 <= 1
 (7)_0_3: y_3 + x_0_3 <= 1
 (7)_1_2: y_2 + x_1_2 <= 1
 (7)_3_2: y_2 + x_3_2 <= 1
 (7)_2_3: y_3 + x_2_3 <= 1
 (7)_3_4: y_4 + x_3_4 <= 1
 (7)_2_4: y_4 + x_2_4 <= 1
Bounds
 y_0 = 1
 y_4 = 0
Binaries
 y_0 y_1 y_2 y_3 y_4 x_0_1 x_1_0 x_0_2 x_0_3 x_1_2 x_3_2 x_2_3 x_3_4 x_2_4
End
